Route #1: 49 56 59 46 8 30
Route #2: 15 47 9 34 22
Route #3: 39 62 51 33 26 6 35 25
Route #4: 10 61 2 21 52 19 42
Route #5: 41 14 58 54 12 43 24 17 11 23
Route #6: 37 57 38 53 7 50 18
Route #7: 1 27 36 20 45
Route #8: 29 28
Route #9: 60 5 55 13 32 48
Route #10: 31 4 3 40 16 44
Cost 1497
Time 0.142398
